(set-logic QF_S)
(declare-fun _var_0xINPUT_127575_() String)
(declare-fun __woorpje_diseq_pref0_() String)
(declare-fun __woorpje_diseq_suf_l0_() String)
(declare-fun __woorpje_diseq_suf_r0_() String)
(assert (=(str.++ _var_0xINPUT_127575_  "")(str.++ __woorpje_diseq_pref0_  "n" __woorpje_diseq_suf_l0_  "")) )
(assert (=(str.++  "ojCBSZBn3s" "")(str.++ __woorpje_diseq_pref0_  "s" __woorpje_diseq_suf_r0_  "")) )
(check-sat)
